<number of tasks>
58

<cycle time>
74

<task times>
1 10
2 53
3 41
4 36
5 35
6 17
7 34
8 23
9 14
10 52
11 33
12 34
13 12
14 52
15 12
16 33
17 44
18 7
19 15
20 13
21 29
22 37
23 43
24 23
25 24
26 9
27 16
28 12
29 26
30 22
31 51
32 47
33 34
34 23
35 12
36 52
37 12
38 33
39 44
40 7
41 15
42 13
43 29
44 37
45 43
46 23
47 24
48 9
49 16
50 12
51 26
52 12
53 52
54 12
55 33
56 44
57 7
58 15

<precedence relations>
1,9
2,25
3,21
3,22
4,10
5,36
6,23
6,24
7,43
8,44
9,11
11,13
11,14
11,15
12,17
13,17
14,17
15,17
16,18
17,20
18,19
19,23
20,21
20,25
21,26
21,44
22,27
23,31
24,31
25,38
26,29
27,30
28,32
28,33
29,31
30,34
31,36
32,45
33,35
34,36
35,43
36,37
36,38
37,39
37,40
37,41
38,52
39,43
40,43
41,42
42,43
43,45
44,45
45,46
45,48
45,49
46,47
46,50
47,51
48,55
49,58
50,58
51,52
52,53
53,54
54,55
54,56
55,57
56,57
57,58

<setup times forward>
1,2:8
1,3:3
1,4:3
1,5:2
1,6:5
1,7:1
1,8:8
1,9:4
1,10:3
1,12:1
1,16:10
1,18:2
1,19:2
1,22:7
1,23:5
1,24:2
1,27:12
1,28:2
1,30:1
1,32:7
1,35:12
2,1:8
2,3:11
2,4:5
2,5:6
2,6:13
2,7:9
2,8:16
2,9:4
2,10:11
2,11:18
2,12:9
2,13:6
2,14:2
2,15:19
2,16:18
2,18:10
2,19:6
2,20:2
2,21:3
2,22:15
2,23:3
2,24:10
2,25:12
2,26:16
2,27:20
2,28:6
2,29:18
2,30:9
2,31:2
2,32:1
2,33:8
2,34:8
2,35:20
2,36:6
2,37:17
2,39:11
2,40:16
2,41:17
2,42:20
2,43:7
2,44:10
2,45:11
2,46:4
2,47:14
2,48:16
2,49:11
2,50:3
2,51:8
3,1:3
3,2:11
3,4:6
3,5:5
3,6:2
3,7:2
3,8:5
3,9:7
3,11:7
3,12:2
3,13:5
3,14:9
3,15:8
3,16:7
3,17:11
3,18:1
3,19:5
3,20:9
3,21:8
3,22:4
3,23:8
3,24:1
3,25:1
3,28:5
3,32:10
3,33:3
3,35:9
4,1:3
4,2:5
4,3:6
4,5:1
4,6:8
4,7:4
4,8:11
4,9:1
4,10:6
4,11:13
4,12:4
4,13:1
4,14:3
4,15:14
4,16:13
4,17:5
4,18:5
4,19:1
4,20:3
4,21:2
4,22:10
4,23:2
4,24:5
4,25:7
4,26:11
4,27:15
4,28:1
4,29:13
4,30:4
4,31:3
4,32:4
4,33:3
4,34:3
4,35:15
4,36:1
4,37:12
4,38:5
4,39:6
4,40:11
4,41:12
4,42:15
4,43:2
4,44:5
4,45:6
4,46:1
4,47:9
4,48:11
4,49:6
4,50:2
4,51:3
4,52:12
4,53:2
4,54:13
4,56:3
4,57:7
4,58:15
5,1:2
5,2:6
5,3:5
5,4:1
5,6:7
5,7:3
5,8:10
5,9:2
5,10:5
5,11:12
5,12:3
5,14:4
5,15:13
5,16:12
5,17:6
5,18:4
5,20:4
5,21:3
5,22:9
5,23:3
5,24:4
5,25:6
5,26:10
5,27:14
5,29:12
5,30:3
5,31:4
5,32:5
5,33:2
5,34:2
5,35:14
5,44:4
6,1:5
6,2:13
6,3:2
6,4:8
6,5:7
6,7:4
6,8:3
6,9:9
6,10:2
6,11:5
6,12:4
6,13:7
6,14:11
6,15:6
6,16:5
6,17:13
6,18:3
6,19:7
6,20:11
6,21:10
6,22:2
6,23:10
6,24:3
6,25:1
6,26:3
6,27:7
6,28:7
6,29:5
6,30:4
6,32:12
6,33:5
6,34:5
6,35:7
6,44:3
7,1:1
7,2:9
7,3:2
7,4:4
7,5:3
7,6:4
7,8:7
7,9:5
7,10:2
7,11:9
7,13:3
7,14:7
7,15:10
7,16:9
7,17:9
7,18:1
7,19:3
7,20:7
7,21:6
7,22:6
7,23:6
7,24:1
7,25:3
7,26:7
7,27:11
7,28:3
7,29:9
7,31:7
7,32:8
7,33:1
7,34:1
7,35:11
7,36:3
7,37:8
7,38:9
7,39:2
7,40:7
7,41:8
7,42:11
7,43:2
7,44:1
8,1:8
8,2:16
8,3:5
8,4:11
8,5:10
8,6:3
8,7:7
8,9:12
8,10:5
8,11:2
8,12:7
8,13:10
8,14:14
8,15:3
8,16:2
8,17:16
8,18:6
8,19:10
8,20:14
8,21:13
8,22:1
8,23:13
8,24:6
8,25:4
8,27:4
8,28:10
8,29:2
8,30:7
8,31:14
8,32:15
8,33:8
8,34:8
8,35:4
8,36:10
8,37:1
8,38:16
8,39:5
8,41:1
8,42:4
8,43:9
8,44:6
9,2:4
9,3:7
9,4:1
9,5:2
9,6:9
9,7:5
9,8:12
9,10:7
9,11:14
9,12:5
9,16:14
9,18:6
9,19:2
9,22:11
9,23:1
9,24:6
9,27:16
9,28:2
9,30:5
9,32:3
9,33:4
9,34:4
9,35:16
10,1:3
10,2:11
10,5:5
10,6:2
10,7:2
10,8:5
10,9:7
10,11:7
10,12:2
10,13:5
10,14:9
10,15:8
10,16:7
10,17:11
10,18:1
10,19:5
10,20:9
10,21:8
10,22:4
10,23:8
10,24:1
10,25:1
10,26:5
10,27:9
10,28:5
10,29:7
10,30:2
10,31:9
10,32:10
10,33:3
10,34:3
10,35:9
10,36:5
10,37:6
10,38:11
10,40:5
10,41:6
10,42:9
10,43:4
10,44:1
10,46:7
10,47:3
10,48:5
10,50:8
10,51:3
10,52:6
10,53:4
10,54:7
10,55:6
10,56:9
10,57:1
10,58:9
11,2:18
11,3:7
11,4:13
11,5:12
11,6:5
11,7:9
11,8:2
11,10:7
11,12:9
11,13:12
11,14:16
11,15:1
11,18:8
11,19:12
11,22:3
11,23:15
11,24:8
11,27:2
11,28:12
11,30:9
11,32:17
11,33:10
11,34:10
11,35:2
12,1:1
12,2:9
12,3:2
12,4:4
12,5:3
12,6:4
12,8:7
12,9:5
12,10:2
12,11:9
12,13:3
12,14:7
12,15:10
12,16:9
12,17:9
12,18:1
12,19:3
12,22:6
12,23:6
12,24:1
12,27:11
12,28:3
12,32:8
12,33:1
12,34:1
12,35:11
13,2:6
13,3:5
13,4:1
13,6:7
13,7:3
13,8:10
13,10:5
13,12:3
13,14:4
13,15:13
13,16:12
13,17:6
13,18:4
13,22:9
13,23:3
13,24:4
13,27:14
13,30:3
13,32:5
13,33:2
13,34:2
13,35:14
14,2:2
14,3:9
14,4:3
14,5:4
14,6:11
14,7:7
14,8:14
14,10:9
14,12:7
14,13:4
14,15:17
14,16:16
14,17:2
14,18:8
14,19:4
14,22:13
14,23:1
14,24:8
14,27:18
14,28:4
14,30:7
14,32:1
14,33:6
14,34:6
14,35:18
15,2:19
15,3:8
15,4:14
15,5:13
15,6:6
15,7:10
15,8:3
15,10:8
15,12:10
15,13:13
15,14:17
15,16:1
15,17:19
15,18:9
15,19:13
15,22:4
15,23:16
15,24:9
15,27:1
15,28:13
15,30:10
15,32:18
15,33:11
15,34:11
15,35:1
16,1:10
16,2:18
16,3:7
16,4:13
16,5:12
16,6:5
16,7:9
16,8:2
16,9:14
16,10:7
16,12:9
16,13:12
16,14:16
16,15:1
16,17:18
16,18:8
16,20:16
16,21:15
16,22:3
16,24:8
16,25:6
16,26:2
16,27:2
16,28:12
16,30:9
16,32:17
16,33:10
16,34:10
16,35:2
16,44:8
17,3:11
17,4:5
17,5:6
17,6:13
17,7:9
17,8:16
17,10:11
17,16:18
17,18:10
17,19:6
17,20:2
17,22:15
17,23:3
17,24:10
17,27:20
17,28:6
17,30:9
17,32:1
17,33:8
17,34:8
17,35:20
18,1:2
18,2:10
18,3:1
18,4:5
18,5:4
18,6:3
18,7:1
18,8:6
18,9:6
18,10:1
18,11:8
18,12:1
18,13:4
18,14:8
18,15:9
18,17:10
18,19:4
18,20:8
18,21:7
18,22:5
18,25:2
18,26:6
18,27:10
18,28:4
18,29:8
18,30:1
18,32:9
18,33:2
18,34:2
18,35:10
19,1:2
19,2:6
19,3:5
19,4:1
19,6:7
19,7:3
19,8:10
19,9:2
19,10:5
19,11:12
19,12:3
19,14:4
19,15:13
19,17:6
19,20:4
19,21:3
19,22:9
19,23:3
19,24:4
19,25:6
19,26:10
19,27:14
19,29:12
19,30:3
19,32:5
19,33:2
19,34:2
19,35:14
19,44:4
20,2:2
20,3:9
20,4:3
20,5:4
20,6:11
20,7:7
20,8:14
20,10:9
20,16:16
20,18:8
20,19:4
20,21:1
20,22:13
20,23:1
20,24:8
20,25:10
20,27:18
20,28:4
20,30:7
20,32:1
20,33:6
20,34:6
20,35:18
21,2:3
21,4:2
21,5:3
21,6:10
21,7:6
21,8:13
21,10:8
21,16:15
21,18:7
21,19:3
21,22:12
21,24:7
21,25:9
21,26:13
21,27:17
21,28:3
21,30:6
21,32:2
21,33:5
21,34:5
21,35:17
21,44:7
22,1:7
22,2:15
22,4:10
22,5:9
22,6:2
22,7:6
22,8:1
22,9:11
22,10:4
22,11:3
22,12:6
22,13:9
22,14:13
22,15:4
22,16:3
22,17:15
22,18:5
22,19:9
22,20:13
22,21:12
22,23:12
22,24:5
22,25:3
22,26:1
22,27:5
22,28:9
22,29:3
22,31:13
22,32:14
22,33:7
22,35:5
22,44:5
23,1:5
23,2:3
23,3:8
23,4:2
23,5:3
23,7:6
23,8:13
23,9:1
23,10:8
23,11:15
23,12:6
23,13:3
23,14:1
23,15:16
23,17:3
23,20:1
23,22:12
23,24:7
23,25:9
23,26:13
23,27:17
23,28:3
23,29:15
23,30:6
23,31:1
23,32:2
23,33:5
23,34:5
23,35:17
23,44:7
24,1:2
24,2:10
24,3:1
24,4:5
24,5:4
24,7:1
24,8:6
24,9:6
24,10:1
24,11:8
24,12:1
24,13:4
24,14:8
24,15:9
24,16:8
24,17:10
24,19:4
24,20:8
24,21:7
24,22:5
24,23:7
24,25:2
24,26:6
24,27:10
24,28:4
24,29:8
24,30:1
24,31:8
24,32:9
24,33:2
24,34:2
24,35:10
25,3:1
25,4:7
25,5:6
25,6:1
25,7:3
25,8:4
25,10:1
25,16:6
25,18:2
25,19:6
25,21:9
25,22:3
25,23:9
25,24:2
25,26:4
25,27:8
25,28:6
25,29:6
25,30:3
25,31:10
25,32:11
25,33:4
25,34:4
25,35:8
25,36:6
25,37:5
25,38:12
25,39:1
25,40:4
25,41:5
25,42:8
25,43:5
25,44:2
25,45:1
25,46:8
25,47:2
25,48:4
25,49:1
25,50:9
25,51:4
26,2:16
26,4:11
26,5:10
26,6:3
26,7:7
26,10:5
26,16:2
26,18:6
26,19:10
26,22:1
26,23:13
26,24:6
26,25:4
26,27:4
26,28:10
26,29:2
26,30:7
26,32:15
26,33:8
26,34:8
26,35:4
26,44:6
27,1:12
27,2:20
27,4:15
27,5:14
27,6:7
27,7:11
27,8:4
27,9:16
27,10:9
27,11:2
27,12:11
27,13:14
27,14:18
27,15:1
27,16:2
27,17:20
27,18:10
27,19:14
27,20:18
27,21:17
27,23:17
27,24:10
27,25:8
27,26:4
27,28:14
27,29:2
27,30:11
27,31:18
27,32:19
27,33:12
27,44:10
28,1:2
28,2:6
28,3:5
28,4:1
28,6:7
28,7:3
28,8:10
28,9:2
28,10:5
28,11:12
28,12:3
28,14:4
28,15:13
28,16:12
28,17:6
28,18:4
28,20:4
28,21:3
28,22:9
28,23:3
28,24:4
28,25:6
28,26:10
28,27:14
28,29:12
28,30:3
28,31:4
28,32:5
28,33:2
28,34:2
28,37:11
28,38:6
28,39:5
28,40:10
28,41:11
28,42:14
28,44:4
29,2:18
29,4:13
29,5:12
29,6:5
29,7:9
29,8:2
29,10:7
29,18:8
29,19:12
29,22:3
29,23:15
29,24:8
29,25:6
29,27:2
29,28:12
29,30:9
29,31:16
29,32:17
29,33:10
29,34:10
29,35:2
29,44:8
30,1:1
30,2:9
30,4:4
30,5:3
30,6:4
30,8:7
30,9:5
30,10:2
30,11:9
30,13:3
30,14:7
30,15:10
30,16:9
30,17:9
30,18:1
30,19:3
30,20:7
30,21:6
30,23:6
30,24:1
30,25:3
30,26:7
30,28:3
30,29:9
30,31:7
30,32:8
30,33:1
30,34:1
30,35:11
30,44:1
31,2:2
31,4:3
31,5:4
31,7:7
31,8:14
31,10:9
31,22:13
31,25:10
31,27:18
31,28:4
31,30:7
31,32:1
31,33:6
31,34:6
31,35:18
31,36:4
31,44:8
32,1:7
32,2:1
32,3:10
32,4:4
32,5:5
32,6:12
32,7:8
32,8:15
32,9:3
32,10:10
32,11:17
32,12:8
32,13:5
32,14:1
32,15:18
32,16:17
32,17:1
32,18:9
32,19:5
32,20:1
32,21:2
32,22:14
32,23:2
32,24:9
32,25:11
32,26:15
32,27:19
32,29:17
32,30:8
32,31:1
32,33:7
32,34:7
32,35:19
32,36:5
32,37:16
32,38:1
32,39:10
32,40:15
32,41:16
32,42:19
32,43:6
32,44:9
32,45:10
33,2:8
33,3:3
33,4:3
33,5:2
33,6:5
33,7:1
33,8:8
33,9:4
33,10:3
33,11:10
33,12:1
33,13:2
33,14:6
33,15:11
33,16:10
33,17:8
33,18:2
33,19:2
33,20:6
33,21:5
33,22:7
33,23:5
33,24:2
33,25:4
33,26:8
33,27:12
33,29:10
33,30:1
33,31:6
33,32:7
33,35:12
33,36:2
33,37:9
33,38:8
33,39:3
33,40:8
33,41:9
33,42:12
33,44:2
34,2:8
34,4:3
34,5:2
34,6:5
34,7:1
34,8:8
34,9:4
34,10:3
34,11:10
34,12:1
34,13:2
34,14:6
34,15:11
34,16:10
34,17:8
34,18:2
34,19:2
34,20:6
34,21:5
34,23:5
34,24:2
34,25:4
34,26:8
34,28:2
34,29:10
34,31:6
34,32:7
34,35:12
34,36:2
34,44:2
35,1:12
35,2:20
35,3:9
35,4:15
35,5:14
35,6:7
35,7:11
35,8:4
35,9:16
35,10:9
35,11:2
35,12:11
35,13:14
35,14:18
35,15:1
35,16:2
35,17:20
35,18:10
35,19:14
35,20:18
35,21:17
35,22:5
35,23:17
35,24:10
35,25:8
35,26:4
35,29:2
35,30:11
35,31:18
35,32:19
35,34:12
35,36:14
35,37:3
35,38:20
35,39:9
35,40:4
35,41:3
35,43:13
35,44:10
36,2:6
36,4:1
36,7:3
36,8:10
36,10:5
36,25:6
36,32:5
36,33:2
36,35:14
36,37:11
36,38:6
36,44:4
37,2:17
37,4:12
37,7:8
37,8:1
37,10:6
37,25:5
37,28:11
37,32:16
37,33:9
37,35:3
37,38:17
37,39:6
37,40:1
37,44:7
38,4:5
38,7:9
38,8:16
38,10:11
38,28:6
38,32:1
38,33:8
38,35:20
38,37:17
38,39:11
38,40:16
38,41:17
38,42:20
38,43:7
38,44:10
38,45:11
38,46:4
38,47:14
38,48:16
38,49:11
38,50:3
38,51:8
38,52:17
39,2:11
39,4:6
39,7:2
39,8:5
39,25:1
39,28:5
39,32:10
39,33:3
39,35:9
39,38:11
39,40:5
39,41:6
39,42:9
39,43:4
39,44:1
40,2:16
40,4:11
40,7:7
40,10:5
40,25:4
40,28:10
40,32:15
40,33:8
40,35:4
40,38:16
40,39:5
40,41:1
40,42:4
40,43:9
40,44:6
41,2:17
41,4:12
41,7:8
41,8:1
41,10:6
41,25:5
41,28:11
41,32:16
41,33:9
41,35:3
41,38:17
41,39:6
41,40:1
41,42:3
41,44:7
42,2:20
42,4:15
42,7:11
42,8:4
42,10:9
42,25:8
42,28:14
42,32:19
42,33:12
42,38:20
42,39:9
42,40:4
42,43:13
42,44:10
43,2:7
43,4:2
43,8:9
43,10:4
43,25:5
43,32:6
43,38:7
43,44:3
43,45:4
44,2:10
44,4:5
44,5:4
44,6:3
44,7:1
44,10:1
44,16:8
44,19:4
44,22:5
44,23:7
44,25:2
44,26:6
44,27:10
44,28:4
44,29:8
44,30:1
44,31:8
44,32:9
44,33:2
44,34:2
44,35:10
44,36:4
44,37:7
44,38:10
44,39:1
44,40:6
44,41:7
44,42:10
44,43:3
44,45:1
45,2:11
45,4:6
45,25:1
45,38:11
45,46:7
45,48:5
46,2:4
46,4:1
46,10:7
46,25:8
46,38:4
46,47:10
46,48:12
46,49:7
46,50:1
47,2:14
47,4:9
47,10:3
47,25:2
47,38:14
47,48:2
47,49:3
47,50:11
47,51:6
48,2:16
48,4:11
48,10:5
48,25:4
48,38:16
48,46:12
48,47:2
48,49:5
48,50:13
48,51:8
48,52:1
48,53:9
48,54:2
48,55:11
48,56:14
49,2:11
49,4:6
49,25:1
49,38:11
49,46:7
49,47:3
49,48:5
49,50:8
49,51:3
49,52:6
49,53:4
49,54:7
49,55:6
49,56:9
49,57:1
49,58:9
50,2:3
50,4:2
50,10:8
50,25:9
50,38:3
50,47:11
50,48:13
50,49:8
50,51:5
50,52:14
50,53:4
50,54:15
50,55:2
50,56:1
50,57:9
50,58:17
51,2:8
51,4:3
51,10:3
51,25:4
51,38:8
51,48:8
51,49:3
51,50:5
51,52:9
52,4:12
52,10:6
52,48:1
52,49:6
52,50:14
52,53:10
53,4:2
53,10:4
53,48:9
53,49:4
53,50:4
53,54:11
54,4:13
54,10:7
54,48:2
54,49:7
54,50:15
54,55:13
54,56:16
55,10:6
55,49:6
55,50:2
55,56:3
55,57:7
56,4:3
56,10:9
56,48:14
56,49:9
56,50:1
56,55:3
56,57:10
57,4:7
57,10:1
57,49:1
57,50:9
57,58:8
58,4:15
58,10:9

<setup times backward>
1,1:21
1,2:13
1,3:24
1,4:18
1,5:19
1,6:26
1,7:22
1,8:29
1,10:24
1,12:22
1,16:31
1,18:23
1,19:19
1,22:28
1,23:16
1,24:23
1,27:33
1,28:19
1,30:22
1,32:14
1,33:21
1,34:21
1,35:33
2,1:29
2,2:21
2,3:32
2,4:26
2,5:27
2,6:34
2,7:30
2,8:37
2,9:25
2,10:32
2,11:39
2,12:30
2,13:27
2,14:23
2,15:40
2,16:39
2,17:21
2,18:31
2,19:27
2,20:23
2,21:24
2,22:36
2,23:24
2,24:31
2,26:37
2,27:41
2,28:27
2,29:39
2,30:30
2,31:23
2,32:22
2,33:29
2,34:29
2,35:41
2,36:27
2,37:38
2,39:32
2,40:37
2,41:38
2,42:41
2,43:28
2,44:31
2,45:32
2,46:25
2,47:35
2,48:37
2,49:32
2,50:24
2,51:29
3,1:18
3,2:10
3,3:21
3,4:15
3,5:16
3,6:23
3,7:19
3,8:26
3,9:14
3,10:21
3,11:28
3,12:19
3,13:16
3,14:12
3,15:29
3,16:28
3,17:10
3,18:20
3,19:16
3,20:12
3,23:13
3,24:20
3,25:22
3,28:16
3,32:11
3,33:18
3,35:30
4,1:24
4,2:16
4,3:27
4,4:21
4,5:22
4,6:29
4,7:25
4,8:32
4,9:20
4,11:34
4,12:25
4,13:22
4,14:18
4,15:35
4,16:34
4,17:16
4,18:26
4,19:22
4,20:18
4,21:19
4,22:31
4,23:19
4,24:26
4,25:28
4,26:32
4,27:36
4,28:22
4,29:34
4,30:25
4,31:18
4,32:17
4,33:24
4,34:24
4,35:36
4,36:22
4,37:33
4,38:16
4,39:27
4,40:32
4,41:33
4,42:36
4,43:23
4,44:26
4,45:27
4,46:20
4,47:30
4,48:32
4,49:27
4,50:19
4,51:24
4,52:33
4,53:23
4,54:34
4,55:21
4,56:18
4,57:28
4,58:36
5,1:23
5,2:15
5,3:26
5,4:20
5,5:21
5,6:28
5,7:24
5,8:31
5,9:19
5,10:26
5,11:33
5,12:24
5,13:21
5,14:17
5,15:34
5,16:33
5,17:15
5,18:25
5,19:21
5,20:17
5,21:18
5,22:30
5,23:18
5,24:25
5,25:27
5,26:31
5,27:35
5,28:21
5,29:33
5,30:24
5,31:17
5,32:16
5,33:23
5,34:23
5,35:35
5,44:25
6,1:16
6,2:8
6,3:19
6,4:13
6,5:14
6,6:21
6,7:17
6,8:24
6,9:12
6,10:19
6,11:26
6,12:17
6,13:14
6,14:10
6,15:27
6,16:26
6,17:8
6,18:18
6,19:14
6,20:10
6,21:11
6,22:23
6,25:20
6,26:24
6,27:28
6,28:14
6,29:26
6,30:17
6,32:9
6,33:16
6,34:16
6,35:28
6,44:18
7,1:20
7,2:12
7,3:23
7,4:17
7,5:18
7,6:25
7,7:21
7,8:28
7,9:16
7,10:23
7,11:30
7,12:21
7,13:18
7,14:14
7,15:31
7,16:30
7,17:12
7,18:22
7,19:18
7,20:14
7,21:15
7,22:27
7,23:15
7,24:22
7,25:24
7,26:28
7,27:32
7,28:18
7,29:30
7,30:21
7,31:14
7,32:13
7,33:20
7,34:20
7,35:32
7,36:18
7,37:29
7,38:12
7,39:23
7,40:28
7,41:29
7,42:32
7,44:22
8,1:13
8,2:5
8,3:16
8,4:10
8,5:11
8,6:18
8,7:14
8,8:21
8,9:9
8,10:16
8,11:23
8,12:14
8,13:11
8,14:7
8,15:24
8,16:23
8,17:5
8,18:15
8,19:11
8,20:7
8,21:8
8,22:20
8,23:8
8,24:15
8,25:17
8,26:21
8,27:25
8,28:11
8,29:23
8,30:14
8,31:7
8,32:6
8,33:13
8,34:13
8,35:25
8,36:11
8,37:22
8,38:5
8,39:16
8,40:21
8,41:22
8,42:25
8,43:12
9,1:25
9,2:17
9,3:28
9,4:22
9,5:23
9,6:30
9,7:26
9,8:33
9,9:21
9,10:28
9,12:26
9,16:35
9,18:27
9,19:23
9,22:32
9,23:20
9,24:27
9,27:37
9,28:23
9,30:26
9,32:18
9,33:25
9,34:25
9,35:37
10,1:18
10,2:10
10,3:21
10,4:15
10,5:16
10,6:23
10,7:19
10,8:26
10,9:14
10,10:21
10,11:28
10,12:19
10,13:16
10,14:12
10,15:29
10,16:28
10,17:10
10,18:20
10,19:16
10,20:12
10,21:13
10,22:25
10,23:13
10,24:20
10,25:22
10,26:26
10,27:30
10,28:16
10,29:28
10,30:19
10,31:12
10,32:11
10,33:18
10,34:18
10,35:30
10,36:16
10,37:27
10,38:10
10,39:21
10,40:26
10,41:27
10,42:30
10,43:17
10,44:20
10,45:21
10,46:14
10,47:24
10,48:26
10,49:21
10,50:13
10,51:18
10,52:27
10,53:17
10,54:28
10,55:15
10,56:12
10,57:22
10,58:30
11,1:11
11,2:3
11,3:14
11,4:8
11,5:9
11,6:16
11,7:12
11,8:19
11,9:7
11,10:14
11,11:21
11,12:12
11,16:21
11,18:13
11,19:9
11,22:18
11,23:6
11,24:13
11,27:23
11,28:9
11,30:12
11,32:4
11,33:11
11,34:11
11,35:23
12,1:20
12,2:12
12,3:23
12,4:17
12,5:18
12,6:25
12,7:21
12,8:28
12,9:16
12,10:23
12,11:30
12,12:21
12,13:18
12,14:14
12,15:31
12,16:30
12,18:22
12,19:18
12,22:27
12,23:15
12,24:22
12,27:32
12,28:18
12,30:21
12,32:13
12,33:20
12,34:20
12,35:32
13,1:23
13,2:15
13,3:26
13,4:20
13,5:21
13,6:28
13,7:24
13,8:31
13,9:19
13,10:26
13,11:33
13,12:24
13,13:21
13,14:17
13,15:34
13,16:33
13,18:25
13,19:21
13,22:30
13,23:18
13,24:25
13,27:35
13,28:21
13,30:24
13,32:16
13,33:23
13,34:23
13,35:35
14,1:27
14,2:19
14,3:30
14,4:24
14,5:25
14,6:32
14,7:28
14,8:35
14,9:23
14,10:30
14,11:37
14,12:28
14,13:25
14,14:21
14,15:38
14,16:37
14,18:29
14,19:25
14,22:34
14,23:22
14,24:29
14,27:39
14,28:25
14,30:28
14,32:20
14,33:27
14,34:27
14,35:39
15,1:10
15,2:2
15,3:13
15,4:7
15,5:8
15,6:15
15,7:11
15,8:18
15,9:6
15,10:13
15,11:20
15,12:11
15,13:8
15,14:4
15,15:21
15,16:20
15,18:12
15,19:8
15,22:17
15,23:5
15,24:12
15,27:22
15,28:8
15,30:11
15,32:3
15,33:10
15,34:10
15,35:22
16,1:11
16,2:3
16,3:14
16,4:8
16,5:9
16,6:16
16,7:12
16,8:19
16,9:7
16,10:14
16,11:21
16,12:12
16,13:9
16,14:5
16,15:22
16,16:21
16,17:3
16,20:5
16,21:6
16,22:18
16,24:13
16,25:15
16,26:19
16,27:23
16,28:9
16,29:21
16,30:12
16,32:4
16,33:11
16,34:11
16,35:23
16,44:13
17,1:29
17,2:21
17,3:32
17,4:26
17,5:27
17,6:34
17,7:30
17,8:37
17,9:25
17,10:32
17,11:39
17,12:30
17,13:27
17,14:23
17,15:40
17,16:39
17,17:21
17,18:31
17,19:27
17,22:36
17,23:24
17,24:31
17,27:41
17,28:27
17,30:30
17,32:22
17,33:29
17,34:29
17,35:41
18,1:19
18,2:11
18,3:22
18,4:16
18,5:17
18,6:24
18,7:20
18,8:27
18,9:15
18,10:22
18,11:29
18,12:20
18,13:17
18,14:13
18,15:30
18,16:29
18,17:11
18,18:21
18,20:13
18,21:14
18,22:26
18,24:21
18,25:23
18,26:27
18,27:31
18,28:17
18,29:29
18,30:20
18,32:12
18,33:19
18,34:19
18,35:31
18,44:21
19,1:23
19,2:15
19,3:26
19,4:20
19,5:21
19,6:28
19,7:24
19,8:31
19,9:19
19,10:26
19,11:33
19,12:24
19,13:21
19,14:17
19,15:34
19,16:33
19,17:15
19,18:25
19,19:21
19,20:17
19,21:18
19,22:30
19,24:25
19,25:27
19,26:31
19,27:35
19,28:21
19,29:33
19,30:24
19,32:16
19,33:23
19,34:23
19,35:35
19,44:25
20,1:27
20,2:19
20,3:30
20,4:24
20,5:25
20,6:32
20,7:28
20,8:35
20,9:23
20,10:30
20,11:37
20,12:28
20,13:25
20,14:21
20,15:38
20,16:37
20,17:19
20,18:29
20,19:25
20,20:21
20,22:34
20,23:22
20,24:29
20,27:39
20,28:25
20,30:28
20,32:20
20,33:27
20,34:27
20,35:39
21,1:26
21,2:18
21,3:29
21,4:23
21,5:24
21,6:31
21,7:27
21,8:34
21,9:22
21,10:29
21,11:36
21,12:27
21,13:24
21,14:20
21,15:37
21,16:36
21,17:18
21,18:28
21,19:24
21,20:20
21,21:21
21,22:33
21,23:21
21,24:28
21,25:30
21,27:38
21,28:24
21,30:27
21,32:19
21,33:26
21,34:26
21,35:38
22,1:14
22,2:6
22,3:17
22,4:11
22,5:12
22,6:19
22,7:15
22,8:22
22,9:10
22,10:17
22,11:24
22,12:15
22,13:12
22,14:8
22,15:25
22,16:24
22,17:6
22,18:16
22,19:12
22,20:8
22,21:9
22,22:21
22,23:9
22,24:16
22,25:18
22,26:22
22,28:12
22,29:24
22,31:8
22,32:7
22,33:14
22,35:26
22,44:16
23,1:26
23,2:18
23,3:29
23,4:23
23,5:24
23,6:31
23,7:27
23,8:34
23,9:22
23,10:29
23,11:36
23,12:27
23,13:24
23,14:20
23,15:37
23,16:36
23,17:18
23,18:28
23,19:24
23,20:20
23,21:21
23,22:33
23,23:21
23,24:28
23,25:30
23,26:34
23,27:38
23,28:24
23,29:36
23,30:27
23,32:19
23,33:26
23,34:26
23,35:38
23,44:28
24,1:19
24,2:11
24,3:22
24,4:16
24,5:17
24,6:24
24,7:20
24,8:27
24,9:15
24,10:22
24,11:29
24,12:20
24,13:17
24,14:13
24,15:30
24,16:29
24,17:11
24,18:21
24,19:17
24,20:13
24,21:14
24,22:26
24,23:14
24,24:21
24,25:23
24,26:27
24,27:31
24,28:17
24,29:29
24,30:20
24,32:12
24,33:19
24,34:19
24,35:31
24,44:21
25,1:17
25,2:9
25,3:20
25,4:14
25,5:15
25,6:22
25,7:18
25,8:25
25,9:13
25,10:20
25,11:27
25,12:18
25,13:15
25,14:11
25,15:28
25,16:27
25,17:9
25,18:19
25,19:15
25,20:11
25,21:12
25,22:24
25,23:12
25,24:19
25,25:21
25,26:25
25,27:29
25,28:15
25,29:27
25,30:18
25,31:11
25,32:10
25,33:17
25,34:17
25,35:29
25,36:15
25,37:26
25,39:20
25,40:25
25,41:26
25,42:29
25,43:16
25,44:19
25,45:20
25,46:13
25,47:23
25,48:25
25,49:20
25,50:12
25,51:17
26,1:13
26,2:5
26,3:16
26,4:10
26,5:11
26,6:18
26,7:14
26,8:21
26,9:9
26,10:16
26,11:23
26,12:14
26,13:11
26,14:7
26,15:24
26,16:23
26,17:5
26,18:15
26,19:11
26,20:7
26,21:8
26,22:20
26,23:8
26,24:15
26,25:17
26,26:21
26,27:25
26,28:11
26,30:14
26,32:6
26,33:13
26,34:13
26,35:25
26,44:15
27,1:9
27,2:1
27,3:12
27,4:6
27,5:7
27,6:14
27,7:10
27,8:17
27,9:5
27,10:12
27,11:19
27,12:10
27,13:7
27,14:3
27,15:20
27,16:19
27,17:1
27,18:11
27,19:7
27,20:3
27,21:4
27,22:16
27,23:4
27,24:11
27,25:13
27,26:17
27,27:21
27,28:7
27,29:19
27,31:3
27,32:2
27,33:9
27,35:21
27,44:11
28,1:23
28,2:15
28,3:26
28,4:20
28,5:21
28,6:28
28,7:24
28,8:31
28,9:19
28,10:26
28,11:33
28,12:24
28,13:21
28,14:17
28,15:34
28,16:33
28,17:15
28,18:25
28,19:21
28,20:17
28,21:18
28,22:30
28,23:18
28,24:25
28,25:27
28,26:31
28,27:35
28,28:21
28,29:33
28,30:24
28,31:17
28,34:23
28,36:21
28,37:32
28,38:15
28,39:26
28,40:31
28,41:32
28,42:35
28,44:25
29,1:11
29,2:3
29,3:14
29,4:8
29,5:9
29,6:16
29,7:12
29,8:19
29,9:7
29,10:14
29,11:21
29,12:12
29,13:9
29,14:5
29,15:22
29,16:21
29,17:3
29,18:13
29,19:9
29,20:5
29,21:6
29,22:18
29,23:6
29,24:13
29,25:15
29,26:19
29,27:23
29,28:9
29,29:21
29,30:12
29,32:4
29,33:11
29,34:11
29,35:23
29,44:13
30,1:20
30,2:12
30,3:23
30,4:17
30,5:18
30,6:25
30,7:21
30,8:28
30,9:16
30,10:23
30,11:30
30,12:21
30,13:18
30,14:14
30,15:31
30,16:30
30,17:12
30,18:22
30,19:18
30,20:14
30,21:15
30,22:27
30,23:15
30,24:22
30,25:24
30,26:28
30,27:32
30,28:18
30,29:30
30,30:21
30,31:14
30,32:13
30,33:20
30,35:32
30,44:22
31,1:27
31,2:19
31,3:30
31,4:24
31,5:25
31,6:32
31,7:28
31,8:35
31,9:23
31,10:30
31,11:37
31,12:28
31,13:25
31,14:21
31,15:38
31,16:37
31,17:19
31,18:29
31,19:25
31,20:21
31,21:22
31,22:34
31,23:22
31,24:29
31,25:31
31,26:35
31,27:39
31,28:25
31,29:37
31,30:28
31,31:21
31,32:20
31,33:27
31,34:27
31,35:39
31,44:29
32,1:28
32,2:20
32,3:31
32,4:25
32,5:26
32,6:33
32,7:29
32,8:36
32,9:24
32,10:31
32,11:38
32,12:29
32,13:26
32,14:22
32,15:39
32,16:38
32,17:20
32,18:30
32,19:26
32,20:22
32,21:23
32,22:35
32,23:23
32,24:30
32,25:32
32,26:36
32,27:40
32,28:26
32,29:38
32,30:29
32,31:22
32,32:21
32,33:28
32,34:28
32,35:40
32,36:26
32,37:37
32,38:20
32,39:31
32,40:36
32,41:37
32,42:40
32,43:27
32,44:30
33,1:21
33,2:13
33,3:24
33,4:18
33,5:19
33,6:26
33,7:22
33,8:29
33,9:17
33,10:24
33,11:31
33,12:22
33,13:19
33,14:15
33,15:32
33,16:31
33,17:13
33,18:23
33,19:19
33,20:15
33,21:16
33,22:28
33,23:16
33,24:23
33,25:25
33,26:29
33,27:33
33,28:19
33,29:31
33,30:22
33,31:15
33,32:14
33,33:21
33,34:21
33,36:19
33,37:30
33,38:13
33,39:24
33,40:29
33,41:30
33,42:33
33,44:23
34,1:21
34,2:13
34,3:24
34,4:18
34,5:19
34,6:26
34,7:22
34,8:29
34,9:17
34,10:24
34,11:31
34,12:22
34,13:19
34,14:15
34,15:32
34,16:31
34,17:13
34,18:23
34,19:19
34,20:15
34,21:16
34,22:28
34,23:16
34,24:23
34,25:25
34,26:29
34,27:33
34,28:19
34,29:31
34,30:22
34,31:15
34,32:14
34,33:21
34,34:21
34,35:33
34,44:23
35,1:9
35,2:1
35,3:12
35,4:6
35,5:7
35,6:14
35,7:10
35,8:17
35,9:5
35,10:12
35,11:19
35,12:10
35,13:7
35,14:3
35,15:20
35,16:19
35,17:1
35,18:11
35,19:7
35,20:3
35,21:4
35,22:16
35,23:4
35,24:11
35,25:13
35,26:17
35,27:21
35,28:7
35,29:19
35,30:10
35,31:3
35,32:2
35,33:9
35,34:9
35,35:21
35,36:7
35,37:18
35,38:1
35,39:12
35,40:17
35,41:18
35,42:21
35,44:11
36,1:23
36,2:15
36,3:26
36,4:20
36,5:21
36,6:28
36,7:24
36,8:31
36,9:19
36,10:26
36,11:33
36,12:24
36,13:21
36,14:17
36,15:34
36,16:33
36,17:15
36,18:25
36,19:21
36,20:17
36,21:18
36,22:30
36,23:18
36,24:25
36,25:27
36,26:31
36,27:35
36,28:21
36,29:33
36,30:24
36,31:17
36,32:16
36,33:23
36,34:23
36,35:35
36,36:21
36,44:25
37,1:12
37,2:4
37,3:15
37,4:9
37,5:10
37,6:17
37,7:13
37,8:20
37,9:8
37,10:15
37,11:22
37,12:13
37,13:10
37,14:6
37,15:23
37,16:22
37,17:4
37,18:14
37,19:10
37,20:6
37,21:7
37,22:19
37,23:7
37,24:14
37,25:16
37,26:20
37,27:24
37,28:10
37,29:22
37,30:13
37,31:6
37,32:5
37,33:12
37,34:12
37,35:24
37,36:10
37,37:21
37,38:4
37,44:14
38,1:29
38,2:21
38,3:32
38,4:26
38,5:27
38,6:34
38,7:30
38,8:37
38,9:25
38,10:32
38,11:39
38,12:30
38,13:27
38,14:23
38,15:40
38,16:39
38,17:21
38,18:31
38,19:27
38,20:23
38,21:24
38,22:36
38,23:24
38,24:31
38,25:33
38,26:37
38,27:41
38,28:27
38,29:39
38,30:30
38,31:23
38,32:22
38,33:29
38,34:29
38,35:41
38,36:27
38,37:38
38,38:21
38,39:32
38,40:37
38,41:38
38,42:41
38,43:28
38,44:31
38,45:32
38,46:25
38,47:35
38,48:37
38,49:32
38,50:24
38,51:29
39,1:18
39,2:10
39,3:21
39,4:15
39,5:16
39,6:23
39,7:19
39,8:26
39,9:14
39,10:21
39,11:28
39,12:19
39,13:16
39,14:12
39,15:29
39,16:28
39,17:10
39,18:20
39,19:16
39,20:12
39,21:13
39,22:25
39,23:13
39,24:20
39,25:22
39,26:26
39,27:30
39,28:16
39,29:28
39,30:19
39,31:12
39,32:11
39,33:18
39,34:18
39,35:30
39,36:16
39,37:27
39,38:10
39,39:21
39,40:26
39,41:27
39,42:30
39,44:20
40,1:13
40,2:5
40,3:16
40,4:10
40,5:11
40,6:18
40,7:14
40,8:21
40,9:9
40,10:16
40,11:23
40,12:14
40,13:11
40,14:7
40,15:24
40,16:23
40,17:5
40,18:15
40,19:11
40,20:7
40,21:8
40,22:20
40,23:8
40,24:15
40,25:17
40,26:21
40,27:25
40,28:11
40,29:23
40,30:14
40,31:7
40,32:6
40,33:13
40,34:13
40,35:25
40,36:11
40,37:22
40,38:5
40,39:16
40,40:21
40,41:22
40,42:25
40,44:15
41,1:12
41,2:4
41,3:15
41,4:9
41,5:10
41,6:17
41,7:13
41,8:20
41,9:8
41,10:15
41,11:22
41,12:13
41,13:10
41,14:6
41,15:23
41,16:22
41,17:4
41,18:14
41,19:10
41,20:6
41,21:7
41,22:19
41,23:7
41,24:14
41,25:16
41,26:20
41,27:24
41,28:10
41,29:22
41,30:13
41,31:6
41,32:5
41,33:12
41,34:12
41,35:24
41,36:10
41,37:21
41,38:4
41,39:15
41,40:20
41,41:21
41,44:14
42,1:9
42,2:1
42,3:12
42,4:6
42,5:7
42,6:14
42,7:10
42,8:17
42,9:5
42,10:12
42,11:19
42,12:10
42,13:7
42,14:3
42,15:20
42,16:19
42,17:1
42,18:11
42,19:7
42,20:3
42,21:4
42,22:16
42,23:4
42,24:11
42,25:13
42,26:17
42,27:21
42,28:7
42,29:19
42,30:10
42,31:3
42,32:2
42,33:9
42,34:9
42,35:21
42,36:7
42,37:18
42,38:1
42,39:12
42,40:17
42,41:18
42,42:21
42,44:11
43,1:22
43,2:14
43,3:25
43,4:19
43,5:20
43,6:27
43,7:23
43,8:30
43,9:18
43,10:25
43,11:32
43,12:23
43,13:20
43,14:16
43,15:33
43,16:32
43,17:14
43,18:24
43,19:20
43,20:16
43,21:17
43,22:29
43,23:17
43,24:24
43,25:26
43,26:30
43,27:34
43,28:20
43,29:32
43,30:23
43,31:16
43,32:15
43,33:22
43,34:22
43,35:34
43,36:20
43,37:31
43,38:14
43,39:25
43,40:30
43,41:31
43,42:34
43,43:21
43,44:24
44,1:19
44,2:11
44,3:22
44,4:16
44,5:17
44,6:24
44,7:20
44,8:27
44,9:15
44,10:22
44,11:29
44,12:20
44,13:17
44,14:13
44,15:30
44,16:29
44,17:11
44,18:21
44,19:17
44,20:13
44,21:14
44,22:26
44,23:14
44,24:21
44,25:23
44,26:27
44,27:31
44,28:17
44,29:29
44,30:20
44,31:13
44,32:12
44,33:19
44,34:19
44,35:31
44,36:17
44,37:28
44,38:11
44,39:22
44,40:27
44,41:28
44,42:31
44,43:18
44,44:21
45,1:18
45,2:10
45,3:21
45,4:15
45,5:16
45,6:23
45,7:19
45,8:26
45,9:14
45,10:21
45,11:28
45,12:19
45,13:16
45,14:12
45,15:29
45,16:28
45,17:10
45,18:20
45,19:16
45,20:12
45,21:13
45,22:25
45,23:13
45,24:20
45,25:22
45,26:26
45,27:30
45,28:16
45,29:28
45,30:19
45,31:12
45,32:11
45,33:18
45,34:18
45,35:30
45,36:16
45,37:27
45,38:10
45,39:21
45,40:26
45,41:27
45,42:30
45,43:17
45,44:20
45,45:21
46,1:25
46,2:17
46,3:28
46,4:22
46,5:23
46,6:30
46,7:26
46,8:33
46,9:21
46,10:28
46,11:35
46,12:26
46,13:23
46,14:19
46,15:36
46,16:35
46,17:17
46,18:27
46,19:23
46,20:19
46,21:20
46,22:32
46,23:20
46,24:27
46,25:29
46,26:33
46,27:37
46,28:23
46,29:35
46,30:26
46,31:19
46,32:18
46,33:25
46,34:25
46,35:37
46,36:23
46,37:34
46,38:17
46,39:28
46,40:33
46,41:34
46,42:37
46,43:24
46,44:27
46,45:28
46,46:21
46,48:33
46,49:28
47,1:15
47,2:7
47,3:18
47,4:12
47,5:13
47,6:20
47,7:16
47,8:23
47,9:11
47,10:18
47,11:25
47,12:16
47,13:13
47,14:9
47,15:26
47,16:25
47,17:7
47,18:17
47,19:13
47,20:9
47,21:10
47,22:22
47,23:10
47,24:17
47,25:19
47,26:23
47,27:27
47,28:13
47,29:25
47,30:16
47,31:9
47,32:8
47,33:15
47,34:15
47,35:27
47,36:13
47,37:24
47,38:7
47,39:18
47,40:23
47,41:24
47,42:27
47,43:14
47,44:17
47,45:18
47,46:11
47,47:21
47,48:23
47,49:18
47,50:10
48,1:13
48,2:5
48,3:16
48,4:10
48,5:11
48,6:18
48,7:14
48,8:21
48,9:9
48,10:16
48,11:23
48,12:14
48,13:11
48,14:7
48,15:24
48,16:23
48,17:5
48,18:15
48,19:11
48,20:7
48,21:8
48,22:20
48,23:8
48,24:15
48,25:17
48,26:21
48,27:25
48,28:11
48,29:23
48,30:14
48,31:7
48,32:6
48,33:13
48,34:13
48,35:25
48,36:11
48,37:22
48,38:5
48,39:16
48,40:21
48,41:22
48,42:25
48,43:12
48,44:15
48,45:16
48,46:9
48,47:19
48,48:21
48,49:16
48,50:8
48,51:13
48,52:22
48,53:12
48,54:23
48,56:7
49,1:18
49,2:10
49,3:21
49,4:15
49,5:16
49,6:23
49,7:19
49,8:26
49,9:14
49,10:21
49,11:28
49,12:19
49,13:16
49,14:12
49,15:29
49,16:28
49,17:10
49,18:20
49,19:16
49,20:12
49,21:13
49,22:25
49,23:13
49,24:20
49,25:22
49,26:26
49,27:30
49,28:16
49,29:28
49,30:19
49,31:12
49,32:11
49,33:18
49,34:18
49,35:30
49,36:16
49,37:27
49,38:10
49,39:21
49,40:26
49,41:27
49,42:30
49,43:17
49,44:20
49,45:21
49,46:14
49,47:24
49,48:26
49,49:21
49,50:13
49,51:18
49,52:27
49,53:17
49,54:28
49,55:15
49,56:12
49,57:22
50,1:26
50,2:18
50,3:29
50,4:23
50,5:24
50,6:31
50,7:27
50,8:34
50,9:22
50,10:29
50,11:36
50,12:27
50,13:24
50,14:20
50,15:37
50,16:36
50,17:18
50,18:28
50,19:24
50,20:20
50,21:21
50,22:33
50,23:21
50,24:28
50,25:30
50,26:34
50,27:38
50,28:24
50,29:36
50,30:27
50,31:20
50,32:19
50,33:26
50,34:26
50,35:38
50,36:24
50,37:35
50,38:18
50,39:29
50,40:34
50,41:35
50,42:38
50,43:25
50,44:28
50,45:29
50,46:22
50,47:32
50,48:34
50,49:29
50,50:21
50,51:26
50,52:35
50,53:25
50,54:36
50,55:23
50,56:20
50,57:30
51,1:21
51,2:13
51,3:24
51,4:18
51,5:19
51,6:26
51,7:22
51,8:29
51,9:17
51,10:24
51,11:31
51,12:22
51,13:19
51,14:15
51,15:32
51,16:31
51,17:13
51,18:23
51,19:19
51,20:15
51,21:16
51,22:28
51,23:16
51,24:23
51,25:25
51,26:29
51,27:33
51,28:19
51,29:31
51,30:22
51,31:15
51,32:14
51,33:21
51,34:21
51,35:33
51,36:19
51,37:30
51,38:13
51,39:24
51,40:29
51,41:30
51,42:33
51,43:20
51,44:23
51,45:24
51,46:17
51,47:27
51,48:29
51,49:24
51,50:16
51,51:21
52,1:12
52,2:4
52,3:15
52,4:9
52,5:10
52,6:17
52,7:13
52,8:20
52,9:8
52,10:15
52,11:22
52,12:13
52,13:10
52,14:6
52,15:23
52,16:22
52,17:4
52,18:14
52,19:10
52,20:6
52,21:7
52,22:19
52,23:7
52,24:14
52,25:16
52,26:20
52,27:24
52,28:10
52,29:22
52,30:13
52,31:6
52,32:5
52,33:12
52,34:12
52,35:24
52,36:10
52,37:21
52,38:4
52,39:15
52,40:20
52,41:21
52,42:24
52,43:11
52,44:14
52,45:15
52,46:8
52,47:18
52,48:20
52,49:15
52,50:7
52,51:12
52,52:21
53,1:22
53,2:14
53,3:25
53,4:19
53,5:20
53,6:27
53,7:23
53,8:30
53,9:18
53,10:25
53,11:32
53,12:23
53,13:20
53,14:16
53,15:33
53,16:32
53,17:14
53,18:24
53,19:20
53,20:16
53,21:17
53,22:29
53,23:17
53,24:24
53,25:26
53,26:30
53,27:34
53,28:20
53,29:32
53,30:23
53,31:16
53,32:15
53,33:22
53,34:22
53,35:34
53,36:20
53,37:31
53,38:14
53,39:25
53,40:30
53,41:31
53,42:34
53,43:21
53,44:24
53,45:25
53,46:18
53,47:28
53,48:30
53,49:25
53,50:17
53,51:22
53,52:31
53,53:21
54,1:11
54,2:3
54,3:14
54,4:8
54,5:9
54,6:16
54,7:12
54,8:19
54,9:7
54,10:14
54,11:21
54,12:12
54,13:9
54,14:5
54,15:22
54,16:21
54,17:3
54,18:13
54,19:9
54,20:5
54,21:6
54,22:18
54,23:6
54,24:13
54,25:15
54,26:19
54,27:23
54,28:9
54,29:21
54,30:12
54,31:5
54,32:4
54,33:11
54,34:11
54,35:23
54,36:9
54,37:20
54,38:3
54,39:14
54,40:19
54,41:20
54,42:23
54,43:10
54,44:13
54,45:14
54,46:7
54,47:17
54,48:19
54,49:14
54,50:6
54,51:11
54,52:20
54,53:10
54,54:21
55,1:24
55,2:16
55,3:27
55,4:21
55,5:22
55,6:29
55,7:25
55,8:32
55,9:20
55,10:27
55,11:34
55,12:25
55,13:22
55,14:18
55,15:35
55,16:34
55,17:16
55,18:26
55,19:22
55,20:18
55,21:19
55,22:31
55,23:19
55,24:26
55,25:28
55,26:32
55,27:36
55,28:22
55,29:34
55,30:25
55,31:18
55,32:17
55,33:24
55,34:24
55,35:36
55,36:22
55,37:33
55,38:16
55,39:27
55,40:32
55,41:33
55,42:36
55,43:23
55,44:26
55,45:27
55,46:20
55,47:30
55,48:32
55,49:27
55,50:19
55,51:24
55,52:33
55,53:23
55,54:34
55,55:21
55,56:18
56,1:27
56,2:19
56,3:30
56,4:24
56,5:25
56,6:32
56,7:28
56,8:35
56,9:23
56,10:30
56,11:37
56,12:28
56,13:25
56,14:21
56,15:38
56,16:37
56,17:19
56,18:29
56,19:25
56,20:21
56,21:22
56,22:34
56,23:22
56,24:29
56,25:31
56,26:35
56,27:39
56,28:25
56,29:37
56,30:28
56,31:21
56,32:20
56,33:27
56,34:27
56,35:39
56,36:25
56,37:36
56,38:19
56,39:30
56,40:35
56,41:36
56,42:39
56,43:26
56,44:29
56,45:30
56,46:23
56,47:33
56,48:35
56,49:30
56,50:22
56,51:27
56,52:36
56,53:26
56,54:37
56,55:24
56,56:21
57,1:17
57,2:9
57,3:20
57,4:14
57,5:15
57,6:22
57,7:18
57,8:25
57,9:13
57,10:20
57,11:27
57,12:18
57,13:15
57,14:11
57,15:28
57,16:27
57,17:9
57,18:19
57,19:15
57,20:11
57,21:12
57,22:24
57,23:12
57,24:19
57,25:21
57,26:25
57,27:29
57,28:15
57,29:27
57,30:18
57,31:11
57,32:10
57,33:17
57,34:17
57,35:29
57,36:15
57,37:26
57,38:9
57,39:20
57,40:25
57,41:26
57,42:29
57,43:16
57,44:19
57,45:20
57,46:13
57,47:23
57,48:25
57,49:20
57,50:12
57,51:17
57,52:26
57,53:16
57,54:27
57,55:14
57,56:11
57,57:21
58,1:9
58,2:1
58,3:12
58,4:6
58,5:7
58,6:14
58,7:10
58,8:17
58,9:5
58,10:12
58,11:19
58,12:10
58,13:7
58,14:3
58,15:20
58,16:19
58,17:1
58,18:11
58,19:7
58,20:3
58,21:4
58,22:16
58,23:4
58,24:11
58,25:13
58,26:17
58,27:21
58,28:7
58,29:19
58,30:10
58,31:3
58,32:2
58,33:9
58,34:9
58,35:21
58,36:7
58,37:18
58,38:1
58,39:12
58,40:17
58,41:18
58,42:21
58,43:8
58,44:11
58,45:12
58,46:5
58,47:15
58,48:17
58,49:12
58,50:4
58,51:9
58,52:18
58,53:8
58,54:19
58,55:6
58,56:3
58,57:13
58,58:21

<end>

<optimal SALBP-1 value>
22


<rand seed>
467321153

<Lower Bounds>
Lm1=21
Lms1=21
Lm2=14
Lm3=17
Lm4=22
Best=22

<Optimal Stations (Iterations: 10)>
39
